solution status: optimal solution found
objective value:                                    0
$not$benchmarks/c432.v:0$242_y                     24 	(obj:0)
$not$benchmarks/c432.v:0$242_z                    -22 	(obj:0)
$not$benchmarks/c432.v:0$272_y                     16 	(obj:0)
$not$benchmarks/c432.v:0$272_z                    -21 	(obj:0)
$not$benchmarks/c432.v:0$234_y                     21 	(obj:0)
$not$benchmarks/c432.v:0$234_z                    -15 	(obj:0)
$not$benchmarks/c432.v:0$266_y                     22 	(obj:0)
$not$benchmarks/c432.v:0$266_z                    -13 	(obj:0)
$not$benchmarks/c432.v:0$246_y                     24 	(obj:0)
$not$benchmarks/c432.v:0$246_z                    -25 	(obj:0)
$not$benchmarks/c432.v:0$356_y                     23 	(obj:0)
$not$benchmarks/c432.v:0$356_z                    -17 	(obj:0)
$not$benchmarks/c432.v:0$388_y                     23 	(obj:0)
$not$benchmarks/c432.v:0$388_z                    -25 	(obj:0)
$not$benchmarks/c432.v:0$285_y                     22 	(obj:0)
$not$benchmarks/c432.v:0$285_z                    -14 	(obj:0)
$not$benchmarks/c432.v:0$392_y                     23 	(obj:0)
$not$benchmarks/c432.v:0$392_z                    -21 	(obj:0)
$not$benchmarks/c432.v:0$432_y                     17 	(obj:0)
$not$benchmarks/c432.v:0$432_z                    -20 	(obj:0)
$and$benchmarks/c432.v:200$453_y                   16 	(obj:0)
$and$benchmarks/c432.v:200$453_z                  -18 	(obj:0)
$not$benchmarks/c432.v:0$384_y                     25 	(obj:0)
$not$benchmarks/c432.v:0$384_z                    -17 	(obj:0)
$not$benchmarks/c432.v:0$502_y                     19 	(obj:0)
$not$benchmarks/c432.v:0$502_z                    -21 	(obj:0)
$not$benchmarks/c432.v:0$386_y                     24 	(obj:0)
$not$benchmarks/c432.v:0$386_z                    -24 	(obj:0)
$not$benchmarks/c432.v:0$347_y                     19 	(obj:0)
$not$benchmarks/c432.v:0$347_z                    -24 	(obj:0)
$not$benchmarks/c432.v:0$218_y                     18 	(obj:0)
$not$benchmarks/c432.v:0$218_z                    -18 	(obj:0)
$and$benchmarks/c432.v:198$446_y                   20 	(obj:0)
$and$benchmarks/c432.v:198$446_z                  -23 	(obj:0)
$not$benchmarks/c432.v:0$206_y                     19 	(obj:0)
$not$benchmarks/c432.v:0$206_z                    -17 	(obj:0)
$not$benchmarks/c432.v:0$224_y                     19 	(obj:0)
$not$benchmarks/c432.v:0$224_z                    -18 	(obj:0)
$not$benchmarks/c432.v:0$428_y                     19 	(obj:0)
$not$benchmarks/c432.v:0$428_z                    -19 	(obj:0)
$and$benchmarks/c432.v:186$418_y                   16 	(obj:0)
$and$benchmarks/c432.v:186$418_z                  -20 	(obj:0)
$not$benchmarks/c432.v:0$424_y                     21 	(obj:0)
$not$benchmarks/c432.v:0$424_z                    -25 	(obj:0)
$not$benchmarks/c432.v:0$210_y                     15 	(obj:0)
$not$benchmarks/c432.v:0$210_z                    -17 	(obj:0)
$not$benchmarks/c432.v:0$220_y                     23 	(obj:0)
$not$benchmarks/c432.v:0$220_z                    -16 	(obj:0)
$not$benchmarks/c432.v:0$236_y                     14 	(obj:0)
$not$benchmarks/c432.v:0$236_z                    -19 	(obj:0)
$not$benchmarks/c432.v:0$412_y                     18 	(obj:0)
$not$benchmarks/c432.v:0$412_z                    -22 	(obj:0)
$not$benchmarks/c432.v:0$275_y                     22 	(obj:0)
$not$benchmarks/c432.v:0$275_z                    -19 	(obj:0)
$and$benchmarks/c432.v:201$457_y                   17 	(obj:0)
$and$benchmarks/c432.v:201$457_z                  -19 	(obj:0)
$not$benchmarks/c432.v:0$269_y                     21 	(obj:0)
$not$benchmarks/c432.v:0$269_z                    -21 	(obj:0)
$not$benchmarks/c432.v:0$396_y                     25 	(obj:0)
$not$benchmarks/c432.v:0$396_z                    -25 	(obj:0)
$not$benchmarks/c432.v:0$214_y                     18 	(obj:0)
$not$benchmarks/c432.v:0$214_z                    -21 	(obj:0)
$not$benchmarks/c432.v:0$436_y                     18 	(obj:0)
$not$benchmarks/c432.v:0$436_z                    -14 	(obj:0)
$not$benchmarks/c432.v:0$250_y                     19 	(obj:0)
$not$benchmarks/c432.v:0$250_z                    -15 	(obj:0)
$not$benchmarks/c432.v:0$208_y                     19 	(obj:0)
$not$benchmarks/c432.v:0$208_z                    -23 	(obj:0)
$not$benchmarks/c432.v:0$341_y                     15 	(obj:0)
$not$benchmarks/c432.v:0$341_z                    -24 	(obj:0)
$not$benchmarks/c432.v:0$212_y                     15 	(obj:0)
$not$benchmarks/c432.v:0$212_z                    -20 	(obj:0)
$not$benchmarks/c432.v:0$283_y                     21 	(obj:0)
$not$benchmarks/c432.v:0$283_z                    -20 	(obj:0)
$and$benchmarks/c432.v:190$434_y                   22 	(obj:0)
$and$benchmarks/c432.v:190$434_z                  -15 	(obj:0)
$not$benchmarks/c432.v:0$344_y                     22 	(obj:0)
$not$benchmarks/c432.v:0$344_z                    -23 	(obj:0)
$not$benchmarks/c432.v:0$200_y                     25 	(obj:0)
$not$benchmarks/c432.v:0$200_z                    -24 	(obj:0)
$not$benchmarks/c432.v:0$244_y                     22 	(obj:0)
$not$benchmarks/c432.v:0$244_z                    -20 	(obj:0)
$not$benchmarks/c432.v:0$248_y                     24 	(obj:0)
$not$benchmarks/c432.v:0$248_z                    -15 	(obj:0)
$not$benchmarks/c432.v:0$394_y                     20 	(obj:0)
$not$benchmarks/c432.v:0$394_z                    -24 	(obj:0)
$not$benchmarks/c432.v:0$398_y                     22 	(obj:0)
$not$benchmarks/c432.v:0$398_z                    -25 	(obj:0)
$not$benchmarks/c432.v:0$226_y                     25 	(obj:0)
$not$benchmarks/c432.v:0$226_z                    -23 	(obj:0)
$and$benchmarks/c432.v:185$414_y                   18 	(obj:0)
$and$benchmarks/c432.v:185$414_z                  -19 	(obj:0)
$not$benchmarks/c432.v:0$408_y                     22 	(obj:0)
$not$benchmarks/c432.v:0$408_z                    -24 	(obj:0)
$and$benchmarks/c432.v:189$430_y                   21 	(obj:0)
$and$benchmarks/c432.v:189$430_z                  -16 	(obj:0)
$and$benchmarks/c432.v:199$449_y                   17 	(obj:0)
$and$benchmarks/c432.v:199$449_z                  -25 	(obj:0)
$not$benchmarks/c432.v:0$232_y                     15 	(obj:0)
$not$benchmarks/c432.v:0$232_z                    -18 	(obj:0)
$and$benchmarks/c432.v:183$406_y                   21 	(obj:0)
$and$benchmarks/c432.v:183$406_z                  -23 	(obj:0)
$not$benchmarks/c432.v:0$354_y                     23 	(obj:0)
$not$benchmarks/c432.v:0$354_z                    -19 	(obj:0)
$not$benchmarks/c432.v:0$277_y                     20 	(obj:0)
$not$benchmarks/c432.v:0$277_z                    -21 	(obj:0)
$and$benchmarks/c432.v:188$426_y                   16 	(obj:0)
$and$benchmarks/c432.v:188$426_z                  -15 	(obj:0)
$not$benchmarks/c432.v:0$230_y                     18 	(obj:0)
$not$benchmarks/c432.v:0$230_z                    -17 	(obj:0)
$and$benchmarks/c432.v:184$410_y                   14 	(obj:0)
$and$benchmarks/c432.v:184$410_z                  -23 	(obj:0)
$not$benchmarks/c432.v:0$198_y                     21 	(obj:0)
$not$benchmarks/c432.v:0$198_z                    -18 	(obj:0)
$not$benchmarks/c432.v:0$352_y                     20 	(obj:0)
$not$benchmarks/c432.v:0$352_z                    -19 	(obj:0)
$not$benchmarks/c432.v:0$416_y                     16 	(obj:0)
$not$benchmarks/c432.v:0$416_z                    -22 	(obj:0)
$not$benchmarks/c432.v:0$335_y                     19 	(obj:0)
$not$benchmarks/c432.v:0$335_z                    -25 	(obj:0)
$not$benchmarks/c432.v:0$216_y                     19 	(obj:0)
$not$benchmarks/c432.v:0$216_z                    -22 	(obj:0)
$not$benchmarks/c432.v:0$390_y                     22 	(obj:0)
$not$benchmarks/c432.v:0$390_z                    -17 	(obj:0)
$not$benchmarks/c432.v:0$240_y                     24 	(obj:0)
$not$benchmarks/c432.v:0$240_z                    -19 	(obj:0)
$not$benchmarks/c432.v:0$202_y                     24 	(obj:0)
$not$benchmarks/c432.v:0$202_z                    -23 	(obj:0)
$and$benchmarks/c432.v:182$402_y                   25 	(obj:0)
$and$benchmarks/c432.v:182$402_z                  -13 	(obj:0)
$not$benchmarks/c432.v:0$204_y                     21 	(obj:0)
$not$benchmarks/c432.v:0$204_z                    -22 	(obj:0)
$not$benchmarks/c432.v:0$400_y                     23 	(obj:0)
$not$benchmarks/c432.v:0$400_z                    -18 	(obj:0)
$not$benchmarks/c432.v:0$279_y                     17 	(obj:0)
$not$benchmarks/c432.v:0$279_z                    -21 	(obj:0)
$not$benchmarks/c432.v:0$281_y                     20 	(obj:0)
$not$benchmarks/c432.v:0$281_z                    -15 	(obj:0)
$not$benchmarks/c432.v:0$350_y                     20 	(obj:0)
$not$benchmarks/c432.v:0$350_z                    -25 	(obj:0)
$not$benchmarks/c432.v:0$490_y                     20 	(obj:0)
$not$benchmarks/c432.v:0$490_z                    -17 	(obj:0)
$not$benchmarks/c432.v:0$504_y                     24 	(obj:0)
$not$benchmarks/c432.v:0$504_z                    -21 	(obj:0)
$not$benchmarks/c432.v:0$222_y                     25 	(obj:0)
$not$benchmarks/c432.v:0$222_z                    -19 	(obj:0)
$not$benchmarks/c432.v:0$238_y                     18 	(obj:0)
$not$benchmarks/c432.v:0$238_z                    -25 	(obj:0)
$and$benchmarks/c432.v:187$422_y                   21 	(obj:0)
$and$benchmarks/c432.v:187$422_z                  -24 	(obj:0)
$not$benchmarks/c432.v:0$228_y                     24 	(obj:0)
$not$benchmarks/c432.v:0$228_z                    -17 	(obj:0)
$not$benchmarks/c432.v:0$420_y                     20 	(obj:0)
$not$benchmarks/c432.v:0$420_z                    -22 	(obj:0)
$not$benchmarks/c432.v:0$338_y                     17 	(obj:0)
$not$benchmarks/c432.v:0$338_z                    -22 	(obj:0)
